language ESSENCE' 1.0
letting AssignmentMatrix be [[0, 0, 0, 0, 0, 0, 0, 0, 0, 0, 0, 0, 0, 0, 1, 1, 1, 1, 1, 1, 1, 1, 1, 1, 1], 
[0, 0, 0, 0, 0, 1, 1, 1, 1, 0, 0, 0, 0, 0, 0, 0, 0, 0, 0, 0, 0, 1, 1, 1, 1], 
[0, 0, 0, 0, 0, 0, 0, 0, 0, 0, 0, 0, 0, 0, 0, 0, 0, 0, 0, 0, 0, 0, 0, 0, 0], 
[1, 0, 0, 0, 1, 0, 0, 0, 0, 1, 1, 0, 0, 0, 0, 0, 0, 0, 0, 0, 0, 0, 0, 0, 0], 
[0, 0, 0, 0, 0, 0, 0, 0, 0, 0, 0, 1, 0, 0, 0, 0, 0, 0, 0, 0, 1, 0, 0, 0, 0]]
letting CPU be [4, 21, 44, 51, 4, 2, 4, 2, 2, 4, 4, 4, 28, 64, 2, 2, 2, 2, 2, 2, 8, 4, 4, 4, 4]
letting Memory be [7500, 244052, 244005, 244006, 7500, 3750, 7500, 3750, 3750, 7500, 7500, 7500, 488024, 488100, 3750, 3750, 3750, 3750, 3750, 3750, 15000, 15000, 15000, 15000, 15000]
letting Price be [210, 0, 0, 1, 210, 116, 210, 126, 116, 210, 210, 210, 4, 0, 116, 116, 116, 116, 116, 116, 420, 350, 350, 350, 350]
letting Storage be [2000, 12052, 12005, 12006, 2000, 2000, 2000, 2000, 2000, 2000, 2000, 2000, 12035, 12193, 2000, 2000, 2000, 2000, 2000, 2000, 2000, 4000, 4000, 4000, 4000]
letting VMType be [341, 1, 1, 1, 341, 433, 341, 464, 433, 341, 341, 341, 1, 1, 433, 433, 433, 433, 433, 433, 278, 316, 316, 316, 316]
